flow=[(1,6,2)(5,0,0)(5,1,0)(5,2,0)(5,4,0)(5,6,7)(5,7,0)(5,8,0)(5,9,0)(5,10,0)(5,11,0)(5,12,0)(5,13,0)(6,1,3)(6,5,2)(6,7,5)(6,10,3)(6,11,16)(8,9,2)(10,6,2)(11,6,5)(11,9,2)(11,10,3)(11,12,9)(12,5,5)(12,6,0)(12,7,1)(12,10,0)(12,13,0)];
